1 14
2 12
3 5
4 7
5 3
6 12
7 12
8 15
9 17
10 17
11 4
12 3
13 6
14 2
15 17
16 7
17 14
18 8
19 9
20 20
21 14
22 20
23 20
24 6
25 2
26 2
27 11
28 12
29 13
30 7
31 14
32 22
33 21
34 22
35 21
36 21
37 21
38 21
39 13
40 22
41 21
42 21
43 22
44 19
45 3
46 9
47 9
48 2
49 2
50 5
51 15
52 1
53 10
54 19
55 9
56 14
57 11
58 9
59 10
60 10
61 1
62 15
63 19
64 4
65 7
66 15
67 16
68 16
69 12
70 10
71 8
72 9
73 4
74 12
75 11
76 17
77 12
78 15
79 5
80 5
81 5
82 9
83 2
84 2
85 17
86 16
87 16
88 9
89 7
90 15
91 16
92 16
93 20
94 20
95 3
96 5
97 19
98 17
99 10
100 13
101 14
102 8
103 18
104 20
105 19
106 11
107 18
108 19
109 18
110 18
111 18
112 8
113 10
114 10
115 10
116 18
117 2
118 8
119 18
120 11
121 21
122 1
123 5
124 18
125 15
126 17
127 17
128 3
129 3
130 22
131 22
132 3
133 22
134 15
135 15
136 12
137 13
138 7
139 4
140 7
141 2
142 2
143 17
144 17
145 6
146 20
147 14
148 1
149 1
150 1
151 12
152 16
153 1
154 1
155 7
156 7
157 3
158 4
159 16
160 20
161 13
162 19
163 6
164 19
165 14
166 3
167 13
168 16
169 5
170 11
171 10
172 3
173 4
174 2
175 1
176 19
177 9
178 9
179 21
180 5
181 16
